<number of tasks>
250

<cycle time>
1000

<order strength>
0.895


<task times>
1 404
2 225
3 225
4 467
5 185
6 342
7 179
8 452
9 141
10 303
11 451
12 57
13 187
14 63
15 29
16 186
17 123
18 455
19 257
20 167
21 215
22 22
23 297
24 525
25 157
26 578
27 478
28 243
29 479
30 535
31 42
32 22
33 451
34 112
35 214
36 170
37 168
38 226
39 69
40 313
41 180
42 562
43 131
44 455
45 107
46 253
47 96
48 33
49 194
50 171
51 566
52 92
53 230
54 72
55 518
56 243
57 460
58 172
59 90
60 49
61 64
62 71
63 194
64 146
65 258
66 463
67 110
68 257
69 142
70 46
71 66
72 208
73 65
74 252
75 543
76 164
77 203
78 393
79 502
80 508
81 191
82 138
83 92
84 299
85 163
86 64
87 159
88 172
89 133
90 79
91 53
92 530
93 245
94 496
95 193
96 169
97 74
98 41
99 426
100 83
101 62
102 124
103 159
104 102
105 113
106 282
107 114
108 494
109 194
110 24
111 179
112 283
113 157
114 176
115 124
116 328
117 250
118 211
119 56
120 21
121 544
122 555
123 321
124 166
125 144
126 163
127 221
128 197
129 145
130 55
131 75
132 227
133 53
134 153
135 101
136 62
137 388
138 252
139 194
140 233
141 164
142 127
143 128
144 193
145 51
146 61
147 65
148 52
149 171
150 47
151 77
152 568
153 130
154 148
155 270
156 459
157 226
158 357
159 106
160 115
161 123
162 471
163 65
164 243
165 138
166 247
167 266
168 349
169 223
170 478
171 442
172 563
173 525
174 53
175 297
176 202
177 61
178 396
179 116
180 28
181 320
182 178
183 288
184 194
185 227
186 433
187 278
188 208
189 248
190 353
191 127
192 503
193 117
194 101
195 210
196 478
197 165
198 291
199 511
200 141
201 50
202 107
203 319
204 134
205 324
206 222
207 207
208 219
209 73
210 61
211 152
212 348
213 166
214 227
215 153
216 210
217 53
218 262
219 449
220 125
221 466
222 106
223 230
224 217
225 93
226 45
227 74
228 20
229 164
230 516
231 90
232 51
233 355
234 158
235 499
236 239
237 518
238 135
239 230
240 168
241 208
242 353
243 99
244 211
245 522
246 86
247 269
248 256
249 267
250 162

<precedence relations>
1,5
1,6
1,7
2,5
2,6
2,7
3,5
3,6
3,7
4,5
4,6
4,7
5,8
5,9
5,10
5,11
5,12
6,8
6,9
6,10
6,11
6,12
7,8
7,9
7,10
7,11
7,12
8,13
8,14
8,15
8,16
8,17
8,18
9,13
9,14
9,15
9,16
9,17
9,18
10,13
10,14
10,15
10,16
10,17
10,18
11,13
11,14
11,15
11,16
11,17
11,18
12,13
12,14
12,16
13,23
13,60
13,97
14,19
15,19
15,20
16,19
16,20
16,21
16,22
17,19
17,21
17,22
18,19
18,20
18,21
18,22
18,23
19,24
19,26
19,27
20,25
20,27
21,59
21,71
21,72
22,24
22,25
22,30
23,64
23,104
23,138
24,28
24,29
25,28
26,28
26,29
26,30
27,28
27,29
27,30
28,31
28,32
28,33
28,34
28,35
28,36
29,31
29,32
29,33
29,34
29,35
29,36
30,31
30,32
30,33
30,34
30,35
31,40
31,47
32,37
32,38
32,39
32,41
33,37
33,39
34,78
35,37
35,38
35,39
35,40
35,41
36,37
36,38
36,39
36,40
36,41
36,42
37,43
37,44
37,45
37,46
37,47
38,43
38,44
38,45
38,46
38,47
39,43
39,44
39,45
39,46
39,47
40,43
41,43
41,44
41,45
41,46
41,47
42,43
42,44
42,45
42,46
42,47
43,48
43,49
43,50
44,48
45,48
45,49
45,50
46,48
46,49
46,50
47,48
47,49
47,50
48,51
48,52
48,53
48,54
49,51
49,52
49,53
49,54
50,51
50,52
50,53
50,54
51,55
52,55
52,56
52,57
52,58
53,59
53,79
54,55
54,56
54,57
54,58
54,59
55,60
55,61
55,62
55,63
55,64
56,60
56,69
57,60
57,61
57,62
57,63
57,64
58,60
58,61
58,63
59,61
59,67
60,120
61,65
61,66
61,80
61,81
61,82
62,68
63,65
63,66
63,67
63,68
63,69
64,160
65,70
65,90
66,119
66,132
67,70
67,147
67,164
68,70
68,71
68,72
69,70
69,71
69,72
70,184
71,74
71,75
72,73
72,74
72,75
73,76
73,77
73,78
74,76
74,78
75,76
75,77
75,78
76,79
76,80
76,81
76,82
77,79
77,80
78,79
79,83
79,85
80,83
81,83
81,84
81,85
81,86
82,114
82,120
83,87
83,88
83,90
83,91
84,87
84,88
84,89
84,90
84,91
85,87
85,96
86,88
87,92
87,93
87,94
88,92
88,93
88,96
89,92
89,93
89,94
89,96
90,92
91,95
92,97
92,98
92,99
93,97
94,97
94,98
95,99
96,97
96,98
96,99
97,100
97,101
97,102
97,103
98,100
98,101
98,102
98,103
99,100
99,101
100,104
100,106
100,107
100,108
101,104
101,105
101,107
102,104
102,105
102,106
103,104
103,105
103,106
103,107
103,108
104,132
104,151
104,159
104,161
105,112
106,109
106,110
106,116
107,111
108,109
108,110
108,111
109,112
109,113
109,114
110,112
110,115
111,112
111,116
112,117
112,118
112,119
112,120
113,117
114,117
114,118
114,119
115,117
115,118
115,119
115,120
116,118
116,134
117,121
117,122
117,123
117,133
118,125
119,121
119,122
119,123
119,124
119,133
120,121
120,126
120,139
121,142
122,141
122,146
123,127
123,128
124,188
124,190
125,128
125,129
126,127
127,131
127,134
128,135
129,130
129,131
129,132
129,133
129,139
130,136
130,137
130,138
131,138
132,232
133,136
134,179
134,189
134,203
134,226
135,136
135,137
135,138
135,139
136,140
136,141
136,142
137,140
137,141
137,142
138,140
138,141
138,142
139,146
140,143
140,144
140,145
140,146
140,147
140,148
140,149
141,143
141,148
141,149
141,167
142,146
143,170
144,150
144,151
144,154
145,152
146,150
147,155
148,153
148,182
148,185
149,183
150,155
150,156
150,157
150,158
150,159
151,158
152,158
152,159
153,168
153,175
154,157
155,166
156,161
157,161
158,160
159,160
160,164
161,162
161,163
162,165
162,174
163,167
164,166
164,168
165,169
165,170
166,169
167,169
167,171
168,178
169,172
169,173
169,175
169,176
170,173
170,184
170,185
171,172
171,173
171,174
172,181
172,199
173,177
173,178
173,179
173,182
174,177
174,178
174,182
175,180
176,177
176,178
177,194
178,183
178,186
178,187
179,190
180,184
180,196
181,185
181,200
182,192
183,188
183,189
184,188
186,230
187,190
187,191
188,193
188,194
188,199
189,237
189,238
190,195
191,192
192,196
192,199
192,200
193,225
193,230
194,197
194,198
194,200
194,201
195,196
195,204
196,205
197,213
197,214
198,203
199,202
199,221
200,202
200,203
200,204
200,205
201,218
201,219
202,208
202,210
203,207
203,211
203,232
204,206
204,209
205,212
205,217
206,245
207,216
207,237
208,213
208,235
209,214
209,215
209,217
210,223
210,231
211,218
212,216
212,244
213,222
213,225
214,218
214,220
214,245
215,218
216,219
216,220
216,239
217,221
218,236
218,237
219,225
220,233
220,249
221,223
221,224
222,226
222,238
223,228
223,229
225,227
225,238
226,230
227,231
228,232
228,234
228,235
229,230
229,233
230,236
230,237
231,247
232,238
232,239
234,243
236,240
236,243
237,241
237,244
237,246
238,240
239,242
240,248
240,249
241,247
241,250
242,245
242,246

<end>
